
Gurobi 7.5.2 (linux64) logging started Sat Jul  7 16:00:33 2018

Changed value of parameter LogFile to result/ilp/simNo_2-n_100-m_40-s_4-minVAF_0.05-cov_10000-k_2-fn_0.15-fp_0.0001-na_0.15.ILP.gurobiSolverLog
   Prev: gurobi.log  Default: 
Changed value of parameter TimeLimit to 86400.0
   Prev: 1e+100  Min: 0.0  Max: 1e+100  Default: 1e+100
Optimize a model with 639293 rows, 10765 columns and 1940420 nonzeros
Variable types: 0 continuous, 10765 integer (10765 binary)
Coefficient statistics:
  Matrix range     [2e-04, 4e+00]
  Objective range  [8e-01, 2e+01]
  Bounds range     [1e+00, 1e+00]
  RHS range        [2e-01, 2e+00]
Found heuristic solution: objective -19630.77074
Presolve removed 120831 rows and 942 columns (presolve time = 5s) ...
Presolve removed 121328 rows and 942 columns (presolve time = 14s) ...
Presolve removed 171028 rows and 1439 columns (presolve time = 16s) ...
Presolve removed 171028 rows and 1439 columns (presolve time = 21s) ...
Presolve removed 171028 rows and 1439 columns
Presolve time: 20.85s
Presolved: 468265 rows, 9326 columns, 1410152 nonzeros
Variable types: 0 continuous, 9326 integer (9326 binary)
Presolved: 9326 rows, 477591 columns, 1419478 nonzeros

Presolve removed 9326 rows and 477591 columns

Root simplex log...

Iteration    Objective       Primal Inf.    Dual Inf.      Time
       0    3.1695069e+01   0.000000e+00   9.827000e+04     25s
   20511   -2.6748222e+02   0.000000e+00   9.931378e+05     30s
   35674   -3.0655150e+02   0.000000e+00   4.937051e+05     35s
   52392   -3.5003541e+02   0.000000e+00   1.808160e+05     40s
   69159   -3.8906651e+02   0.000000e+00   1.482343e+04     45s
   72570   -3.9348659e+02   0.000000e+00   0.000000e+00     48s
   72570   -3.9348659e+02   0.000000e+00   0.000000e+00     49s

Root relaxation: objective -3.934866e+02, 72570 iterations, 25.75 seconds
Total elapsed time = 164.51s
Total elapsed time = 251.87s
Total elapsed time = 350.90s

    Nodes    |    Current Node    |     Objective Bounds      |     Work
 Expl Unexpl |  Obj  Depth IntInf | Incumbent    BestBd   Gap | It/Node Time

     0     0 -393.48659    0 2771 -19630.771 -393.48659  98.0%     -  380s
H    0     0                    -518.6023678 -393.48659  24.1%     -  385s
H    0     0                    -499.4115898 -393.48659  21.2%     -  387s
     0     0 -398.90662    0 2567 -499.41159 -398.90662  20.1%     - 1648s
H    0     0                    -476.7149539 -398.90662  16.3%     - 1664s
H    0     0                    -463.4290307 -398.90662  13.9%     - 1666s
     0     0 -398.90662    0 2567 -463.42903 -398.90662  13.9%     - 1672s
     0     0 -402.87659    0 2649 -463.42903 -402.87659  13.1%     - 15499s
H    0     0                    -461.9528170 -402.87659  12.8%     - 15505s
     0     0 -403.26174    0 2670 -461.95282 -403.26174  12.7%     - 15515s
     0     0 -403.34737    0 2668 -461.95282 -403.34737  12.7%     - 15522s
     0     0 -403.36652    0 2668 -461.95282 -403.36652  12.7%     - 15530s
     0     0 -403.36652    0 2668 -461.95282 -403.36652  12.7%     - 15532s
     0     0 -404.63820    0 2892 -461.95282 -404.63820  12.4%     - 15875s
H    0     0                    -459.0003896 -404.63820  11.8%     - 15883s
     0     0 -404.63820    0 2893 -459.00039 -404.63820  11.8%     - 15885s
     0     0 -406.18648    0 2905 -459.00039 -406.18648  11.5%     - 17193s
     0     0 -406.20405    0 2712 -459.00039 -406.20405  11.5%     - 17221s
     0     0 -406.35664    0 2705 -459.00039 -406.35664  11.5%     - 17239s
     0     0 -406.35664    0 2705 -459.00039 -406.35664  11.5%     - 17243s
     0     0 -406.72241    0 2891 -459.00039 -406.72241  11.4%     - 17483s
     0     0 -406.73517    0 2887 -459.00039 -406.73517  11.4%     - 17498s
     0     0 -406.73517    0 2886 -459.00039 -406.73517  11.4%     - 17502s
     0     0 -408.12766    0 2649 -459.00039 -408.12766  11.1%     - 19120s
     0     0 -408.13582    0 2658 -459.00039 -408.13582  11.1%     - 19143s
     0     0 -408.17142    0 2654 -459.00039 -408.17142  11.1%     - 19154s
     0     0 -408.18977    0 2656 -459.00039 -408.18977  11.1%     - 19158s
     0     0 -409.02406    0 2689 -459.00039 -409.02406  10.9%     - 20066s
H    0     0                    -454.5717485 -409.02406  10.0%     - 20081s
     0     0 -409.03317    0 2684 -454.57175 -409.03317  10.0%     - 20089s
     0     0 -409.03349    0 2689 -454.57175 -409.03349  10.0%     - 20094s
     0     0 -410.69405    0 2698 -454.57175 -410.69405  9.65%     - 25886s
H    0     0                    -453.0955348 -410.69405  9.36%     - 25904s
     0     0 -410.74607    0 2695 -453.09553 -410.74607  9.35%     - 25906s
     0     0 -410.74607    0 2699 -453.09553 -410.74607  9.35%     - 25909s
     0     0 -411.43490    0 2693 -453.09553 -411.43490  9.19%     - 25928s
     0     0 -411.43490    0 2693 -453.09553 -411.43490  9.19%     - 25961s
     0     0 -412.01389    0 2554 -453.09553 -412.01389  9.07%     - 26050s
     0     0 -412.54842    0 2735 -453.09553 -412.54842  8.95%     - 26197s
     0     0 -412.78600    0 2739 -453.09553 -412.78600  8.90%     - 26220s
     0     0 -412.79484    0 2744 -453.09553 -412.79484  8.89%     - 26228s
     0     0 -412.79484    0 2744 -453.09553 -412.79484  8.89%     - 26231s
     0     0 -414.29410    0 2727 -453.09553 -414.29410  8.56%     - 26453s
     0     0 -414.29562    0 2746 -453.09553 -414.29562  8.56%     - 26471s
     0     0 -415.44336    0 2739 -453.09553 -415.44336  8.31%     - 31982s
     0     0 -415.59081    0 2742 -453.09553 -415.59081  8.28%     - 32126s
     0     0 -415.67650    0 2742 -453.09553 -415.67650  8.26%     - 32169s
     0     0 -415.76188    0 2746 -453.09553 -415.76188  8.24%     - 32188s
     0     0 -415.76188    0 2747 -453.09553 -415.76188  8.24%     - 32191s
     0     0 -416.55528    0 2746 -453.09553 -416.55528  8.06%     - 33513s
     0     0 -416.78963    0 2751 -453.09553 -416.78963  8.01%     - 33558s
     0     0 -416.78963    0 2752 -453.09553 -416.78963  8.01%     - 33562s
     0     0 -418.11487    0 2743 -453.09553 -418.11487  7.72%     - 40833s
     0     0 -418.31820    0 2752 -453.09553 -418.31820  7.68%     - 40899s
     0     0 -418.50853    0 2759 -453.09553 -418.50853  7.63%     - 40934s
     0     0 -418.50853    0 2755 -453.09553 -418.50853  7.63%     - 40937s
     0     0 -418.63154    0 2728 -453.09553 -418.63154  7.61%     - 41184s
     0     0 -419.00060    0 2732 -453.09553 -419.00060  7.52%     - 41681s
     0     0 -419.12368    0 2739 -453.09553 -419.12368  7.50%     - 41691s
     0     0 -419.12368    0 2737 -453.09553 -419.12368  7.50%     - 41694s
     0     0 -419.61461    0 2533 -453.09553 -419.61461  7.39%     - 43071s
     0     0 -419.61461    0 2536 -453.09553 -419.61461  7.39%     - 43105s
     0     0 -420.26325    0 2517 -453.09553 -420.26325  7.25%     - 47186s
     0     0 -420.32197    0 2536 -453.09553 -420.32197  7.23%     - 47207s
     0     0 -420.35272    0 2536 -453.09553 -420.35272  7.23%     - 47213s
     0     0 -420.35272    0 2538 -453.09553 -420.35272  7.23%     - 47216s
     0     0 -420.95702    0 2555 -453.09553 -420.95702  7.09%     - 55681s
     0     0 -421.26148    0 2573 -453.09553 -421.26148  7.03%     - 56419s
     0     0 -421.45168    0 2552 -453.09553 -421.45168  6.98%     - 56826s
     0     0 -421.45168    0 2553 -453.09553 -421.45168  6.98%     - 56831s
     0     0 -421.98976    0 2564 -453.09553 -421.98976  6.87%     - 70009s
     0     0 -422.06109    0 2561 -453.09553 -422.06109  6.85%     - 70440s
     0     0 -422.06656    0 2566 -453.09553 -422.06656  6.85%     - 70459s
     0     0 -422.06656    0 2561 -453.09553 -422.06656  6.85%     - 70466s
     0     0 -422.17250    0 2613 -453.09553 -422.17250  6.82%     - 70833s
     0     0 -422.17250    0 2613 -453.09553 -422.17250  6.82%     - 70936s
     0     0 -422.17250    0 2607 -453.09553 -422.17250  6.82%     - 70958s
     0     0 -422.20627    0 2671 -453.09553 -422.20627  6.82%     - 71023s
     0     0 -422.28506    0 2606 -453.09553 -422.28506  6.80%     - 71356s
     0     0 -422.28506    0 2607 -453.09553 -422.28506  6.80%     - 71361s
     0     0 -422.28506    0 2548 -453.09553 -422.28506  6.80%     - 74030s
     0     0 -422.32765    0 2553 -453.09553 -422.32765  6.79%     - 74094s
     0     0 -422.32765    0 2556 -453.09553 -422.32765  6.79%     - 74098s
     0     0 -422.32765    0 2582 -453.09553 -422.32765  6.79%     - 74128s
H    0     0                    -451.6193212 -422.32765  6.49%     - 74184s
     0     0 -422.54198    0 2512 -451.61932 -422.54198  6.44%     - 75624s
     0     0 -422.54198    0 2527 -451.61932 -422.54198  6.44%     - 75637s
     0     0 -422.54198    0 2540 -451.61932 -422.54198  6.44%     - 75662s
     0     0 -422.54198    0 2542 -451.61932 -422.54198  6.44%     - 75725s
     0     0 -422.54198    0 2573 -451.61932 -422.54198  6.44%     - 75745s
     0     0 -422.54198    0 2577 -451.61932 -422.54198  6.44%     - 75816s
     0     0 -422.54198    0 2511 -451.61932 -422.54198  6.44%     - 77042s
     0     0 -422.54198    0 2511 -451.61932 -422.54198  6.44%     - 77212s
     0     2 -422.54509    0 2506 -451.61932 -422.54509  6.44%     - 80367s
     1     3 -430.89220    1 3434 -451.61932 -422.55349  6.44% 78335 81365s
     2     4 -432.24402    2 1460 -451.61932 -422.55349  6.44% 42239 81461s
     3     5 -433.41269    3 1408 -451.61932 -422.55349  6.44% 30378 81557s
     4     6 -433.53570    3 1396 -451.61932 -422.55349  6.44% 25158 81702s
     5     7 -433.90476    4 1307 -451.61932 -422.55349  6.44% 20239 81709s
     6     8 -434.32653    5 1339 -451.61932 -422.55349  6.44% 17002 81717s
     7     9 -448.66689    5  691 -451.61932 -422.55349  6.44% 19397 82297s
     8    10 -449.40500    6  618 -451.61932 -422.55349  6.44% 17162 82322s
     9    11 -450.14311    7  561 -451.61932 -422.55349  6.44% 15306 82334s
    10    10     cutoff    7      -451.61932 -422.55349  6.44% 13786 82335s
    15     9 -447.82672    1 1464 -451.61932 -431.01661  4.56% 11661 83088s
    16    10 -448.93389    2 1383 -451.61932 -431.01661  4.56% 11113 83266s
    17    11 -448.93389    3 1420 -451.61932 -431.01661  4.56% 10474 83271s
    18    12 -448.93389    4 1420 -451.61932 -431.01661  4.56%  9892 83371s
    19    13 -449.67199    5 1369 -451.61932 -431.01661  4.56%  9501 83411s
    20    12     cutoff    5      -451.61932 -431.01661  4.56%  9643 83634s
    21    13 -451.14821    6 1356 -451.61932 -431.01661  4.56%  9521 83745s
    24    12 -451.14821    6 1438 -451.61932 -431.01661  4.56%  8576 83853s
    26    12 -451.14821    7 1334 -451.61932 -431.01661  4.56%  7919 83855s
    27    13 -451.33273    8 1253 -451.61932 -431.01661  4.56%  7677 83897s
    28    12     cutoff    8      -451.61932 -431.01661  4.56%  7558 83946s
    29    13 -451.51726    9 1156 -451.61932 -431.01661  4.56%  7343 83957s
    33    11 -438.14914    2 1624 -451.61932 -433.42109  4.03%  7478 84443s
    34    12 -439.44066    3 1175 -451.61932 -433.42109  4.03%  7463 84529s
    35    13 -440.60933    4 1093 -451.61932 -433.42109  4.03%  7348 84569s
    36    14 -441.10140    5 1045 -451.61932 -433.42109  4.03%  7156 84585s
    37    15 -442.57761    5  874 -451.61932 -433.42109  4.03%  7066 84631s
    38    16 -443.13119    6  885 -451.61932 -433.42109  4.03%  6956 84653s
    39    15     cutoff    6      -451.61932 -433.42109  4.03%  7166 84854s
    40    16 -443.13119    7  965 -451.61932 -433.42109  4.03%  6993 84875s
    41    15     cutoff    7      -451.61932 -433.42109  4.03%  6998 84954s
    42    16 -443.86930    8  827 -451.61932 -433.42109  4.03%  6880 84970s
    43    15     cutoff    8      -451.61932 -433.42109  4.03%  6898 85057s
    44    16 -443.99232    9 1000 -451.61932 -433.42109  4.03%  6757 85063s
    45    17 -450.88132    9  193 -451.61932 -433.42109  4.03%  6710 85106s
    46    16     cutoff   10      -451.61932 -433.42109  4.03%  6576 85110s
    48    16 -444.60741   10  765 -451.61932 -433.42109  4.03%  6324 85149s
    49    17 -444.60741   11  896 -451.61932 -433.42109  4.03%  6199 85151s
    50    16     cutoff   11      -451.61932 -433.42109  4.03%  6236 85241s
    51    17 -445.34551   12  822 -451.61932 -433.42109  4.03%  6126 85246s
    54    20 -446.08362   15  752 -451.61932 -433.42109  4.03%  5792 85266s
    56    20 -446.92717   16  702 -451.61932 -433.42109  4.03%  5597 85283s
    57    21 -447.19078   16  728 -451.61932 -433.42109  4.03%  5514 85286s
    58    22 -448.29794   17  557 -451.61932 -433.42109  4.03%  5447 85295s
    61    25 -448.66700   19  527 -451.61932 -433.42109  4.03%  5190 85301s
    63    25 -450.51226   20  611 -451.61932 -433.42109  4.03%  5040 85312s
    64    26 -449.40510   20  597 -451.61932 -433.42109  4.03%  4966 85325s
    67    25     cutoff   22      -451.61932 -433.42109  4.03%  4755 85330s
    72    24     cutoff   22      -451.61932 -433.42109  4.03%  4432 85335s
    75    23 -433.90476    4 1221 -451.61932 -433.43716  4.03%  4330 85416s
    76    24 -434.39683    5 1160 -451.61932 -433.43716  4.03%  4347 85517s
    77    25 -434.64286    6 1166 -451.61932 -433.43716  4.03%  4304 85537s

Cutting planes:
  Gomory: 2
  MIR: 3
  Zero half: 349

Explored 78 nodes (2787492 simplex iterations) in 86400.17 seconds
Thread count was 1 (of 80 available processors)

Solution count 10: -451.619 -453.096 -454.572 ... -19630.8

Time limit reached
Best objective -4.516193211500e+02, best bound -4.334371644401e+02, gap 4.0260%
